p cnf 32 286
1 2 3 4 5 6 7 8 0
9 10 11 12 13 14 15 16 0
17 18 19 20 21 22 23 24 0
25 26 27 28 29 30 31 32 0
-1 -9 0
-2 -10 0
-3 -11 0
-4 -12 0
-5 -13 0
-6 -14 0
-7 -15 0
-8 -16 0
-1 -17 0
-2 -18 0
-3 -19 0
-4 -20 0
-5 -21 0
-6 -22 0
-7 -23 0
-8 -24 0
-1 -25 0
-2 -26 0
-3 -27 0
-4 -28 0
-5 -29 0
-6 -30 0
-7 -31 0
-8 -32 0
-9 -17 0
-10 -18 0
-11 -19 0
-12 -20 0
-13 -21 0
-14 -22 0
-15 -23 0
-16 -24 0
-9 -25 0
-10 -26 0
-11 -27 0
-12 -28 0
-13 -29 0
-14 -30 0
-15 -31 0
-16 -32 0
-17 -25 0
-18 -26 0
-19 -27 0
-20 -28 0
-21 -29 0
-22 -30 0
-23 -31 0
-24 -32 0
-1 -11 0
-1 -15 0
-1 -16 0
-2 -9 0
-2 -16 0
-3 -9 0
-3 -10 0
-3 -12 0
-3 -13 0
-3 -14 0
-4 -9 0
-4 -10 0
-4 -11 0
-4 -13 0
-5 -9 0
-5 -10 0
-5 -11 0
-5 -12 0
-6 -9 0
-6 -10 0
-6 -11 0
-6 -12 0
-6 -13 0
-6 -15 0
-6 -16 0
-7 -9 0
-7 -10 0
-7 -11 0
-7 -12 0
-7 -13 0
-7 -14 0
-7 -16 0
-8 -9 0
-8 -10 0
-8 -11 0
-8 -12 0
-8 -13 0
-8 -14 0
-8 -15 0
-1 -19 0
-1 -23 0
-1 -24 0
-2 -17 0
-2 -24 0
-3 -17 0
-3 -18 0
-3 -20 0
-3 -21 0
-3 -22 0
-4 -17 0
-4 -18 0
-4 -19 0
-4 -21 0
-5 -17 0
-5 -18 0
-5 -19 0
-5 -20 0
-6 -17 0
-6 -18 0
-6 -19 0
-6 -20 0
-6 -21 0
-6 -23 0
-6 -24 0
-7 -17 0
-7 -18 0
-7 -19 0
-7 -20 0
-7 -21 0
-7 -22 0
-7 -24 0
-8 -17 0
-8 -18 0
-8 -19 0
-8 -20 0
-8 -21 0
-8 -22 0
-8 -23 0
-1 -27 0
-1 -31 0
-1 -32 0
-2 -25 0
-2 -32 0
-3 -25 0
-3 -26 0
-3 -28 0
-3 -29 0
-3 -30 0
-4 -25 0
-4 -26 0
-4 -27 0
-4 -29 0
-5 -25 0
-5 -26 0
-5 -27 0
-5 -28 0
-6 -25 0
-6 -26 0
-6 -27 0
-6 -28 0
-6 -29 0
-6 -31 0
-6 -32 0
-7 -25 0
-7 -26 0
-7 -27 0
-7 -28 0
-7 -29 0
-7 -30 0
-7 -32 0
-8 -25 0
-8 -26 0
-8 -27 0
-8 -28 0
-8 -29 0
-8 -30 0
-8 -31 0
-9 -19 0
-9 -23 0
-9 -24 0
-10 -17 0
-10 -24 0
-11 -17 0
-11 -18 0
-11 -20 0
-11 -21 0
-11 -22 0
-12 -17 0
-12 -18 0
-12 -19 0
-12 -21 0
-13 -17 0
-13 -18 0
-13 -19 0
-13 -20 0
-14 -17 0
-14 -18 0
-14 -19 0
-14 -20 0
-14 -21 0
-14 -23 0
-14 -24 0
-15 -17 0
-15 -18 0
-15 -19 0
-15 -20 0
-15 -21 0
-15 -22 0
-15 -24 0
-16 -17 0
-16 -18 0
-16 -19 0
-16 -20 0
-16 -21 0
-16 -22 0
-16 -23 0
-9 -27 0
-9 -31 0
-9 -32 0
-10 -25 0
-10 -32 0
-11 -25 0
-11 -26 0
-11 -28 0
-11 -29 0
-11 -30 0
-12 -25 0
-12 -26 0
-12 -27 0
-12 -29 0
-13 -25 0
-13 -26 0
-13 -27 0
-13 -28 0
-14 -25 0
-14 -26 0
-14 -27 0
-14 -28 0
-14 -29 0
-14 -31 0
-14 -32 0
-15 -25 0
-15 -26 0
-15 -27 0
-15 -28 0
-15 -29 0
-15 -30 0
-15 -32 0
-16 -25 0
-16 -26 0
-16 -27 0
-16 -28 0
-16 -29 0
-16 -30 0
-16 -31 0
-17 -27 0
-17 -31 0
-17 -32 0
-18 -25 0
-18 -32 0
-19 -25 0
-19 -26 0
-19 -28 0
-19 -29 0
-19 -30 0
-20 -25 0
-20 -26 0
-20 -27 0
-20 -29 0
-21 -25 0
-21 -26 0
-21 -27 0
-21 -28 0
-22 -25 0
-22 -26 0
-22 -27 0
-22 -28 0
-22 -29 0
-22 -31 0
-22 -32 0
-23 -25 0
-23 -26 0
-23 -27 0
-23 -28 0
-23 -29 0
-23 -30 0
-23 -32 0
-24 -25 0
-24 -26 0
-24 -27 0
-24 -28 0
-24 -29 0
-24 -30 0
-24 -31 0
